
Gurobi 9.5.1 (linux64) logging started Tue 16 Aug 2022 08:41:43 PM MST

Set parameter LogFile to value "/home/local/ASUAD/kmajd1/NNRepLayer_v2/demos/walking_example/dynamic_constraint/repair_net/logs/opt_log_multi_22.log"
Gurobi Optimizer version 9.5.1 build v9.5.1rc2 (linux64)
Thread count: 48 physical cores, 96 logical processors, using up to 48 threads
Optimize a model with 15477 rows, 9832 columns and 134549 nonzeros
Model fingerprint: 0x7a712974
Model has 135 quadratic objective terms
Variable types: 5512 continuous, 4320 integer (4320 binary)
Coefficient statistics:
  Matrix range     [4e-03, 6e+01]
  Objective range  [5e-03, 3e+00]
  QObjective range [1e-01, 1e-01]
  Bounds range     [4e-03, 3e+02]
  RHS range        [1e-04, 5e+01]

Concurrent MIP optimizer: 3 concurrent instances (16 threads per instance)

Presolve removed 270 rows and 0 columns
Presolve time: 0.15s
Presolved: 15207 rows, 9832 columns, 134288 nonzeros
Presolved model has 135 quadratic objective terms
Variable types: 5512 continuous, 4320 integer (4320 binary)
Root relaxation presolve removed 4317 rows and 4317 columns
Root relaxation presolved: 10890 rows, 5515 columns, 121337 nonzeros
Root relaxation presolved model has 135 quadratic objective terms


Root relaxation: objective 2.092536e+01, 7227 iterations, 0.43 seconds (0.76 work units)

    Nodes    |    Current Node    |     Objective Bounds      |     Work
 Expl Unexpl |  Obj  Depth IntInf | Incumbent    BestBd   Gap | It/Node Time

     0     0      -    -    -              -   20.92536      -     -    0s
     0     0      -    -    -              -   20.92536      -     -    2s
     0     2      -    -    -              -   20.92536      -     -    9s
    47    64      -    -    -              -   20.92536      -     -   10s
  2210  2318      -    -    -              -   20.92536      -     -   15s
  4739  4929      -    -    -              -   20.92536      -     -   20s
  7212  7384      -    -    -              -   20.92536      -     -   25s
  9346  9542      -    -    -              -   20.92536      -     -   30s
 10215 10215      -    -    -              -   20.92536      -     -   36s
 10217  9706      -    -    -       37.47266   20.92536  44.2%     -   56s
 10296  8828      -    -    -       33.55519   20.92536  37.6%     -   95s
 10632  8202      -    -    -       33.35322   20.92536  37.3%     -  100s

Instance 1 was solved

Explored 11712 nodes (745656 simplex iterations) in 102.41 seconds (180.03 work units)
Thread count was 16 (of 96 available processors)

Solution count 10: 29.9456 30.8044 33.3532 ... 37.4727 

Optimal solution found (tolerance 3.50e-01)
Best objective 2.994555171649e+01, best bound 2.092535769447e+01, gap 30.1220%
